Route #1: 1 29 30 49 33 56 1
Route #2: 1 14 61 6 32 4 41 17 1
Route #3: 1 45 5 50 57 60 1
Route #4: 1 16 48 10 23 35 1
Route #5: 1 31 9 47 13 55 42 15 59 44 25 12 1
Route #6: 1 20 53 34 27 36 26 3 63 1
Route #7: 1 51 19 2 28 37 21 8 1
Route #8: 1 11 38 24 54 39 58 18 7 1
Route #9: 1 62 43 40 52 22 1
Route #10: 1 46 1
cost 1700
